(set-logic QF_SLIA)
(declare-fun var0 () String)
(assert (not (str.in_re var0 (re.++ ((_ re.loop 11 421) (re.++ (re.union (str.to_re "y=") (re.union (str.to_re "-") (re.union (str.to_re "3") (str.to_re "c9")))) (re.++ (re.union (str.to_re "NiS") (re.union (str.to_re "+") (re.union (str.to_re "Bt") (str.to_re "G")))) (re.++ (re.union (str.to_re ")") (re.union (str.to_re ";") (re.union (str.to_re "qA") (str.to_re "xAw")))) (re.union (str.to_re "W,") (re.union (str.to_re "8") (re.union (str.to_re "{F:") (str.to_re "d")))))))) (re.++ ((_ re.loop 13 650) (re.++ (re.union (str.to_re "ur") (re.union (str.to_re "u,") (re.union (str.to_re "xH(") (str.to_re "m}O")))) (re.++ (re.union (str.to_re "ObH") (re.union (str.to_re "sT)") (re.union (str.to_re "ro") (str.to_re "b")))) (re.++ (re.union (str.to_re "h") (re.union (str.to_re "P(") (re.union (str.to_re "9kD") (str.to_re "?,u")))) (re.union (str.to_re "7Y\\") (re.union (str.to_re "Sa+") (re.union (str.to_re "MUy") (str.to_re "71")))))))) (re.++ ((_ re.loop 3 159) (re.++ (re.union (str.to_re "lfS") (re.union (str.to_re "<Y") (re.union (str.to_re "Y~^") (str.to_re "AY")))) (re.++ (re.union (str.to_re "?BC") (re.union (str.to_re "M(I") (re.union (str.to_re "=") (str.to_re "&")))) (re.++ (re.union (str.to_re "`") (re.union (str.to_re "W&Y") (re.union (str.to_re "i") (str.to_re "%3")))) (re.union (str.to_re "AW,") (re.union (str.to_re "?") (re.union (str.to_re "r") (str.to_re "C")))))))) ((_ re.loop 10 747) (re.++ (re.union (str.to_re "!fF") (re.union (str.to_re "q%") (re.union (str.to_re "q!") (str.to_re ",Px")))) (re.++ (re.union (str.to_re "4*a") (re.union (str.to_re "R") (re.union (str.to_re "a_]") (str.to_re "p")))) (re.++ (re.union (str.to_re "rI-") (re.union (str.to_re "+") (re.union (str.to_re "Xm") (str.to_re "?")))) (re.union (str.to_re "E") (re.union (str.to_re "$KU") (re.union (str.to_re "&") (str.to_re "N\\"))))))))))))))
(assert (not (str.in_re var0 (re.++ ((_ re.loop 0 759) (re.++ (re.union (str.to_re "t&") (re.union (str.to_re "A") (re.union (str.to_re "j`") (str.to_re "VP")))) (re.++ (re.union (str.to_re "Uz[") (re.union (str.to_re "-5") (re.union (str.to_re "R-") (str.to_re "bHp")))) (re.++ (re.union (str.to_re "e") (re.union (str.to_re "1V_") (re.union (str.to_re "<$U") (str.to_re "86")))) (re.union (str.to_re "qlz") (re.union (str.to_re "Tft") (re.union (str.to_re "&G") (str.to_re "1")))))))) (re.++ ((_ re.loop 6 79) (re.++ (re.union (str.to_re "i") (re.union (str.to_re "&\\J") (re.union (str.to_re "X") (str.to_re "|A")))) (re.++ (re.union (str.to_re "ta\u0022") (re.union (str.to_re "R") (re.union (str.to_re "kb") (str.to_re "_")))) (re.++ (re.union (str.to_re "$eQ") (re.union (str.to_re "::}") (re.union (str.to_re "SZ") (str.to_re "o/z")))) (re.union (str.to_re "o") (re.union (str.to_re "$VN") (re.union (str.to_re "w/X") (str.to_re "8")))))))) (re.++ ((_ re.loop 10 32) (re.++ (re.union (str.to_re "=GB") (re.union (str.to_re "K8j") (re.union (str.to_re "*7D") (str.to_re "g")))) (re.++ (re.union (str.to_re "P") (re.union (str.to_re "W") (re.union (str.to_re "c") (str.to_re "1Z")))) (re.++ (re.union (str.to_re "'?q") (re.union (str.to_re "y1T") (re.union (str.to_re "%") (str.to_re "p")))) (re.union (str.to_re "C") (re.union (str.to_re ")") (re.union (str.to_re "R") (str.to_re "=G")))))))) ((_ re.loop 5 130) (re.++ (re.union (str.to_re "_\\n") (re.union (str.to_re "4X") (re.union (str.to_re "d_U") (str.to_re "J%_")))) (re.++ (re.union (str.to_re "IEQ") (re.union (str.to_re "o") (re.union (str.to_re "2EL") (str.to_re ",X")))) (re.++ (re.union (str.to_re "$N(") (re.union (str.to_re "`KC") (re.union (str.to_re "q") (str.to_re "9#f")))) (re.union (str.to_re "[M") (re.union (str.to_re "z#A") (re.union (str.to_re "$]") (str.to_re "P@y"))))))))))))))
(assert (not (str.in_re var0 (re.++ (re.* re.allchar) (re.++ (re.union (str.to_re "<") (re.union (str.to_re ">") (re.union (str.to_re "'") (re.union (str.to_re "\u0022") (str.to_re "&"))))) (re.* re.allchar))))))
(assert (<= 50 (str.len var0)))
(check-sat)
(get-model)
